c User generated cnf file
p cnf 14 32
12 5 -9 0 
9 -6 13 0 
6 9 -12 0 
5 -14 4 0 
1 10 -8 0 
6 14 -8 0 
-4 6 14 0 
-8 3 4 0 
-13 7 12 0 
3 11 -12 0 
8 3 -1 0 
-2 12 14 0 
4 -8 2 0 
11 5 -9 0 
12 14 -14 0 
12 -3 10 0 
-5 5 14 0 
4 5 -2 0 
-7 3 4 0 
4 1 -4 0 
11 12 -11 0 
5 -4 5 0 
-8 2 8 0 
-9 8 3 0 
2 8 -4 0 
4 -9 4 0 
-13 3 13 0 
2 -7 11 0 
-2 7 3 0 
12 8 -13 0 
2 13 -4 0 
14 10 -14 0 
